&CONTROL
  calculation = 'cp'
  dt =   3.0000000000d+00
  iprint = 1
  isave = 100
  max_seconds = 1500
  ndr = 50
  ndw = 50
  nstep = 10
  outdir = './out/'
  prefix = 'aiida'
  pseudo_dir = './pseudo/'
  restart_mode = 'from_scratch'
  verbosity = 'high'
  wf_collect = .false.
/
&SYSTEM
    ibrav = 0,
    nat = 18,   ! number of atoms in the unit cell
    ntyp = 2,   ! number of atom types in the unit cell
    !nbnd = 15,  ! number of bands to calculate
    ecutwfc = 40.0,
    !nr1b= 10, nr2b = 10, nr3b = 10, ! fft mesh grid
    !input_dft = 'PBE' ! overrides the one from pseudos
/
&ELECTRONS
  electron_dynamics = 'cg'
  emass =   400.d0
  emass_cutoff =   3.0000000000d+00
/
&IONS
  ion_dynamics = 'none'
/
ATOMIC_SPECIES
Mo    95.95
S    32.06
ATOMIC_POSITIONS angstrom
Ba           0.0000000000       0.0000000000       0.0000000000
Ti           2.0000000000       2.0000000000       2.0000000000
O            2.0000000000       2.0000000000       0.0000000000
O            2.0000000000       0.0000000000       2.0000000000
O            0.0000000000       2.0000000000       2.0000000000
CELL_PARAMETERS angstrom
        4.0000000000       0.0000000000       0.0000000000
        0.0000000000       4.0000000000       0.0000000000
        0.0000000000       0.0000000000       4.0000000000