&CONTROL
  calculation = 'cp'
  dt =   3.0000000000d+00
  iprint = 1
  isave = 100
  max_seconds = 1500
  ndr = 50
  ndw = 50
  nstep = 10
  outdir = './out/'
  prefix = 'MoS2'
  pseudo_dir = '/home/adamh94/SSSP_1.3.0_PBE_efficiency/'
  restart_mode = 'from_scratch'
  verbosity = 'high'
/
&SYSTEM
    ibrav = 0,
    nat = 27,   ! number of atoms in the unit cell
    ntyp = 2,   ! number of atom types in the unit cell
    !nbnd = 15,  ! number of bands to calculate
    ecutwfc = 35.0,  ! kin. E cutoff for wavefunctions
    ecutrho = 280,
    smearing = 'gaussian',
    occupations = 'smearing',
    degauss=0.05,
    !nr1b= 10, nr2b = 10, nr3b = 10, ! fft mesh grid
    !input_dft = 'PBE' ! overrides the one set from pseudos
/
&ELECTRONS
  electron_dynamics = 'cg'
  emass =   400.d0
  emass_cutoff =   3.0000000000d+00
/
&IONS
ATOMIC_SPECIES
Mo    95.95    Mo_ONCV_PBE-1.0.oncvpsp.upf
S     32.06    s_pbe_v1.4.uspp.F.UPF
ATOMIC_POSITIONS angstrom
Mo       1.58000000       0.45610671      25.00000000
Mo       0.00000000       3.19274699      25.00000000
Mo      -1.58000000       5.92938726      25.00000000
Mo       4.74000000       0.45610671      25.00000000
Mo       3.16000000       3.19274699      25.00000000
Mo       1.58000000       5.92938726      25.00000000
Mo       7.90000000       0.45610671      25.00000000
Mo       6.32000000       3.19274699      25.00000000
Mo       4.74000000       5.92938726      25.00000000
S        1.58000000       2.28053356      23.42000000
S        0.00000000       5.01717384      23.42000000
S       -1.58000000       7.75381412      23.42000000
S        4.74000000       2.28053356      23.42000000
S        3.16000000       5.01717384      23.42000000
S        1.58000000       7.75381412      23.42000000
S        7.90000000       2.28053356      23.42000000
S        6.32000000       5.01717384      23.42000000
S        4.74000000       7.75381412      23.42000000
S        1.58000000       2.28053356      26.58000000
S        0.00000000       5.01717384      26.58000000
S       -1.58000000       7.75381412      26.58000000
S        4.74000000       2.28053356      26.58000000
S        3.16000000       5.01717384      26.58000000
S        1.58000000       7.75381412      26.58000000
S        7.90000000       2.28053356      26.58000000
S        6.32000000       5.01717384      26.58000000
S        4.74000000       7.75381412      26.58000000
CELL_PARAMETERS angstrom
9.48    0.0                 0.0
-14.22  24.629762483629435  0.0
0.0     0.0                 50.0