&CONTROL
  calculation = 'scf'
  outdir = './out/'
  prefix = 'MoS2'
  pseudo_dir = './pseudo/'
  restart_mode = 'from_scratch'
  verbosity = 'high'
  wf_collect = .true.
/
&SYSTEM
  ecutwfc = 70
  ecutrho = 560
  ibrav = 0
  nat = 108
  ntyp = 2
  smearing = 'fermi-dirac'
/
&ELECTRONS
  conv_thr =   1.0000000000d-07
  diagonalization = 'cg'
/
ATOMIC_SPECIES
Mo    95.95    Mo_ONCV_PBE-1.0.oncvpsp.upf
S     32.06    s_pbe_v1.4.uspp.F.UPF

ATOMIC_POSITIONS angstrom
Mo    1.58    0.4561067126598042    25.0
Mo    0.0    3.19274698861863    25.0
Mo    -1.58    5.929387264577456    25.0
Mo    -3.16    8.66602754053628    25.0
Mo    -4.74    11.402667816495107    25.0
Mo    -6.32    14.139308092453934    25.0
Mo    4.74    0.4561067126598042    25.0
Mo    3.16    3.19274698861863    25.0
Mo    1.58    5.929387264577456    25.0
Mo    0.0    8.66602754053628    25.0
Mo    -1.58    11.402667816495107    25.0
Mo    -3.16    14.139308092453934    25.0
Mo    7.9    0.4561067126598042    25.0
Mo    6.32    3.19274698861863    25.0
Mo    4.74    5.929387264577456    25.0
Mo    3.16    8.66602754053628    25.0
Mo    1.58    11.402667816495107    25.0
Mo    0.0    14.139308092453934    25.0
Mo    11.06    0.4561067126598042    25.0
Mo    9.48    3.19274698861863    25.0
Mo    7.9    5.929387264577456    25.0
Mo    6.32    8.66602754053628    25.0
Mo    4.74    11.402667816495107    25.0
Mo    3.16    14.139308092453934    25.0
Mo    14.22    0.4561067126598042    25.0
Mo    12.64    3.19274698861863    25.0
Mo    11.06    5.929387264577456    25.0
Mo    9.48    8.66602754053628    25.0
Mo    7.9    11.402667816495107    25.0
Mo    6.32    14.139308092453934    25.0
Mo    17.380000000000003    0.4561067126598042    25.0
Mo    15.8    3.19274698861863    25.0
Mo    14.22    5.929387264577456    25.0
Mo    12.64    8.66602754053628    25.0
Mo    11.06    11.402667816495107    25.0
Mo    9.48    14.139308092453934    25.0
S    1.58    2.280533563299022    26.58
S    0.0    5.017173839257848    26.58
S    -1.58    7.753814115216674    26.58
S    -3.16    10.490454391175497    26.58
S    -4.74    13.227094667134324    26.58
S    -6.32    15.96373494309315    26.58
S    4.74    2.280533563299022    26.58
S    3.16    5.017173839257848    26.58
S    1.58    7.753814115216674    26.58
S    0.0    10.490454391175497    26.58
S    -1.58    13.227094667134324    26.58
S    -3.16    15.96373494309315    26.58
S    7.9    2.280533563299022    26.58
S    6.32    5.017173839257848    26.58
S    4.74    7.753814115216674    26.58
S    3.16    10.490454391175497    26.58
S    1.58    13.227094667134324    26.58
S    0.0    15.96373494309315    26.58
S    11.06    2.280533563299022    26.58
S    9.48    5.017173839257848    26.58
S    7.9    7.753814115216674    26.58
S    6.32    10.490454391175497    26.58
S    4.74    13.227094667134324    26.58
S    3.16    15.96373494309315    26.58
S    14.22    2.280533563299022    26.58
S    12.64    5.017173839257848    26.58
S    11.06    7.753814115216674    26.58
S    9.48    10.490454391175497    26.58
S    7.9    13.227094667134324    26.58
S    6.32    15.96373494309315    26.58
S    17.380000000000003    2.280533563299022    26.58
S    15.8    5.017173839257848    26.58
S    14.22    7.753814115216674    26.58
S    12.64    10.490454391175497    26.58
S    11.06    13.227094667134324    26.58
S    9.48    15.96373494309315    26.58
S    1.58    2.280533563299022    23.42
S    0.0    5.017173839257848    23.42
S    -1.58    7.753814115216674    23.42
S    -3.16    10.490454391175497    23.42
S    -4.74    13.227094667134324    23.42
S    -6.32    15.96373494309315    23.42
S    4.74    2.280533563299022    23.42
S    3.16    5.017173839257848    23.42
S    1.58    7.753814115216674    23.42
S    0.0    10.490454391175497    23.42
S    -1.58    13.227094667134324    23.42
S    -3.16    15.96373494309315    23.42
S    7.9    2.280533563299022    23.42
S    6.32    5.017173839257848    23.42
S    4.74    7.753814115216674    23.42
S    3.16    10.490454391175497    23.42
S    1.58    13.227094667134324    23.42
S    0.0    15.96373494309315    23.42
S    11.06    2.280533563299022    23.42
S    9.48    5.017173839257848    23.42
S    7.9    7.753814115216674    23.42
S    6.32    10.490454391175497    23.42
S    4.74    13.227094667134324    23.42
S    3.16    15.96373494309315    23.42
S    14.22    2.280533563299022    23.42
S    12.64    5.017173839257848    23.42
S    11.06    7.753814115216674    23.42
S    9.48    10.490454391175497    23.42
S    7.9    13.227094667134324    23.42
S    6.32    15.96373494309315    23.42
S    17.380000000000003    2.280533563299022    23.42
S    15.8    5.017173839257848    23.42
S    14.22    7.753814115216674    23.42
S    12.64    10.490454391175497    23.42
S    11.06    13.227094667134324    23.42
S    9.48    15.96373494309315    23.42

CELL_PARAMETERS angstrom
18.96    0    0
-9.48    16.419841655752958    0
0    0    50

K_POINTS automatic
1 1 1 0 0 0
