&CONTROL
  calculation = 'vc-relax'
  outdir = './out/'
  prefix = 'MoS2'
  pseudo_dir = './pseudo/'
  restart_mode = 'from_scratch'
  verbosity = 'high'
  wf_collect = .true.
/
&SYSTEM
  ecutwfc = 70
  ecutrho = 560
  ibrav = 0
  nat = 108
  ntyp = 2
  smearing = 'fermi-dirac'
/
&ELECTRONS
  conv_thr =   1.0000000000d-07
/
&IONS
/
&CELL
  cell_dofree='ibrav'
/
ATOMIC_SPECIES
Mo    95.95    Mo_ONCV_PBE-1.0.oncvpsp.upf
S     32.06    s_pbe_v1.4.uspp.F.UPF

ATOMIC_POSITIONS angstrom
Mo    1.58    0.4561067126598042    25.0
S    1.58    2.280533563299022    26.58
S    1.58    2.280533563299022    23.42

CELL_PARAMETERS angstrom
3.16    0    0
-1.58    2.736640275958826    0
0    0    50

K_POINTS automatic
6 6 6 0 0 0
