&CONTROL
  calculation = 'vc-relax'
  outdir = './out/'
  prefix = 'MoS2'
  pseudo_dir = './pseudo/'
  restart_mode = 'from_scratch'
  verbosity = 'high'
  wf_collect = .true.
  startingwfc = 'file'
  startingpot = 'file'
/
&SYSTEM
  ecutwfc = 120
  ecutrho = 960
  ibrav = 0
  nat = 108
  ntyp = 2
  smearing = 'fermi-dirac'
/
&ELECTRONS
  conv_thr =   1.0000000000d-07
  diagonalization = 'cg'
/
&CELL
  cell_dofree='ibrav'
/
ATOMIC_SPECIES
Mo    95.95    Mo_ONCV_PBE-1.0.oncvpsp.upf
S     32.06    s_pbe_v1.4.uspp.F.UPF

ATOMIC_POSITIONS angstrom
Mo       1.58000000       0.45610671      25.00000000
Mo       0.00000000       3.19274699      25.00000000
Mo      -1.58000000       5.92938726      25.00000000
Mo      -3.16000000       8.66602754      25.00000000
Mo      -4.74000000      11.40266782      25.00000000
Mo      -6.32000000      14.13930809      25.00000000
Mo       4.74000000       0.45610671      25.00000000
Mo       3.16000000       3.19274699      25.00000000
Mo       1.58000000       5.92938726      25.00000000
Mo       0.00000000       8.66602754      25.00000000
Mo      -1.58000000      11.40266782      25.00000000
Mo      -3.16000000      14.13930809      25.00000000
Mo       7.90000000       0.45610671      25.00000000
Mo       6.32000000       3.19274699      25.00000000
Mo       4.74000000       5.92938726      25.00000000
Mo       3.16000000       8.66602754      25.00000000
Mo       1.58000000      11.40266782      25.00000000
Mo       0.00000000      14.13930809      25.00000000
Mo      11.06000000       0.45610671      25.00000000
Mo       9.48000000       3.19274699      25.00000000
Mo       7.90000000       5.92938726      25.00000000
Mo       6.32000000       8.66602754      25.00000000
Mo       4.74000000      11.40266782      25.00000000
Mo       3.16000000      14.13930809      25.00000000
Mo      14.22000000       0.45610671      25.00000000
Mo      12.64000000       3.19274699      25.00000000
Mo      11.06000000       5.92938726      25.00000000
Mo       9.48000000       8.66602754      25.00000000
Mo       7.90000000      11.40266782      25.00000000
Mo       6.32000000      14.13930809      25.00000000
Mo      17.38000000       0.45610671      25.00000000
Mo      15.80000000       3.19274699      25.00000000
Mo      14.22000000       5.92938726      25.00000000
Mo      12.64000000       8.66602754      25.00000000
Mo      11.06000000      11.40266782      25.00000000
Mo       9.48000000      14.13930809      25.00000000
S        1.58000000       2.28053356      23.42000000
S        0.00000000       5.01717384      23.42000000
S       -1.58000000       7.75381412      23.42000000
S       -3.16000000      10.49045439      23.42000000
S       -4.74000000      13.22709467      23.42000000
S       -6.32000000      15.96373494      23.42000000
S        4.74000000       2.28053356      23.42000000
S        3.16000000       5.01717384      23.42000000
S        1.58000000       7.75381412      23.42000000
S        0.00000000      10.49045439      23.42000000
S       -1.58000000      13.22709467      23.42000000
S       -3.16000000      15.96373494      23.42000000
S        7.90000000       2.28053356      23.42000000
S        6.32000000       5.01717384      23.42000000
S        4.74000000       7.75381412      23.42000000
S        3.16000000      10.49045439      23.42000000
S        1.58000000      13.22709467      23.42000000
S        0.00000000      15.96373494      23.42000000
S       11.06000000       2.28053356      23.42000000
S        9.48000000       5.01717384      23.42000000
S        7.90000000       7.75381412      23.42000000
S        6.32000000      10.49045439      23.42000000
S        4.74000000      13.22709467      23.42000000
S        3.16000000      15.96373494      23.42000000
S       14.22000000       2.28053356      23.42000000
S       12.64000000       5.01717384      23.42000000
S       11.06000000       7.75381412      23.42000000
S        9.48000000      10.49045439      23.42000000
S        7.90000000      13.22709467      23.42000000
S        6.32000000      15.96373494      23.42000000
S       17.38000000       2.28053356      23.42000000
S       15.80000000       5.01717384      23.42000000
S       14.22000000       7.75381412      23.42000000
S       12.64000000      10.49045439      23.42000000
S       11.06000000      13.22709467      23.42000000
S        9.48000000      15.96373494      23.42000000
S        1.58000000       2.28053356      26.58000000
S        0.00000000       5.01717384      26.58000000
S       -1.58000000       7.75381412      26.58000000
S       -3.16000000      10.49045439      26.58000000
S       -4.74000000      13.22709467      26.58000000
S       -6.32000000      15.96373494      26.58000000
S        4.74000000       2.28053356      26.58000000
S        3.16000000       5.01717384      26.58000000
S        1.58000000       7.75381412      26.58000000
S        0.00000000      10.49045439      26.58000000
S       -1.58000000      13.22709467      26.58000000
S       -3.16000000      15.96373494      26.58000000
S        7.90000000       2.28053356      26.58000000
S        6.32000000       5.01717384      26.58000000
S        4.74000000       7.75381412      26.58000000
S        3.16000000      10.49045439      26.58000000
S        1.58000000      13.22709467      26.58000000
S        0.00000000      15.96373494      26.58000000
S       11.06000000       2.28053356      26.58000000
S        9.48000000       5.01717384      26.58000000
S        7.90000000       7.75381412      26.58000000
S        6.32000000      10.49045439      26.58000000
S        4.74000000      13.22709467      26.58000000
S        3.16000000      15.96373494      26.58000000
S       14.22000000       2.28053356      26.58000000
S       12.64000000       5.01717384      26.58000000
S       11.06000000       7.75381412      26.58000000
S        9.48000000      10.49045439      26.58000000
S        7.90000000      13.22709467      26.58000000
S        6.32000000      15.96373494      26.58000000
S       17.38000000       2.28053356      26.58000000
S       15.80000000       5.01717384      26.58000000
S       14.22000000       7.75381412      26.58000000
S       12.64000000      10.49045439      26.58000000
S       11.06000000      13.22709467      26.58000000
S        9.48000000      15.96373494      26.58000000

CELL_PARAMETERS angstrom
18.96 0.0 0.0
-9.48 16.419841655752958 0.0
0.0 0.0 50.0

K_POINTS automatic
1 1 1 0 0 0
