&CONTROL
  calculation = 'vc-cp'
  dt = 3.0d0 ! =0.072fs 1 a.u.=2.4189 * 10^-17 s
  iprint = 1
  isave = 5
  max_seconds = 43200
  ndr = 50
  ndw = 51
  nstep = 1000
  outdir = './out/'
  prefix = 'MoS2'
  pseudo_dir = '/home/adamh94/SSSP_1.3.0_PBE_efficiency/'
  restart_mode = 'reset_counters'
  verbosity = 'high'
/
&SYSTEM
    ibrav = 0,
    nat = 107,   ! number of atoms in the unit cell
    ntyp = 2,   ! number of atom types in the unit cell
    ecutwfc = 70.0,  ! kin. E cutoff for wavefunctions
    ecutrho = 560,
    smearing = 'gaussian',
/
&ELECTRONS
  electron_dynamics = 'verlet'
  emass =   50.d0
  electron_maxstep = 100
/
&IONS
ion_dynamics = 'verlet'
ion_velocities = 'random'
/
ATOMIC_SPECIES
Mo    95.95    Mo_ONCV_PBE-1.0.oncvpsp.upf
S     32.06    s_pbe_v1.4.uspp.F.UPF

ATOMIC_POSITIONS angstrom
Mo    1.5920625867261835    0.4595888815065237    25.000001799822392
S    1.592062586726164    2.2979444075326927    26.562809238493355
S    1.592062586726164    2.2979444075326927    23.437194361151295
Mo    4.796163466380676e-14    3.2171221705457382    25.000001799822392
S    2.842170943040401e-14    5.0554776965719075    26.562809238493355
S    2.842170943040401e-14    5.0554776965719075    23.437194361151295
Mo    -1.5920625867260876    5.974655459584953    25.000001799822392
S    -1.5920625867261071    7.813010985611122    26.562809238493355
S    -1.5920625867261071    7.813010985611122    23.437194361151295
Mo    -3.184125173452223    8.732188748624166    25.000001799822392
S    -3.1841251734522427    10.570544274650336    26.562809238493355
S    -3.1841251734522427    10.570544274650336    23.437194361151295
Mo    -4.776187760178359    11.48972203766338    25.000001799822392
S    -4.776187760178378    13.32807756368955    26.562809238493355
S    -4.776187760178378    13.32807756368955    23.437194361151295
Mo    -6.368250346904494    14.247255326702595    25.000001799822392
S    -6.368250346904514    16.085610852728763    26.562809238493355
S    -6.368250346904514    16.085610852728763    23.437194361151295
Mo    4.776187760178499    0.4595888815065236    25.000001799822392
S    4.7761877601784795    2.2979444075326927    26.562809238493355
S    4.7761877601784795    2.2979444075326927    23.437194361151295
Mo    3.1841251734523635    3.2171221705457382    25.000001799822392
S    3.184125173452344    5.0554776965719075    26.562809238493355
S    3.184125173452344    5.0554776965719075    23.437194361151295
Mo    1.592062586726228    5.974655459584953    25.000001799822392
S    1.5920625867262084    7.813010985611122    26.562809238493355
S    1.5920625867262084    7.813010985611122    23.437194361151295
Mo    9.237055564881302e-14    8.732188748624166    25.000001799822392
S    7.283063041541027e-14    10.570544274650336    26.562809238493355
S    7.283063041541027e-14    10.570544274650336    23.437194361151295
Mo    -1.5920625867260432    11.48972203766338    25.000001799822392
S    -1.5920625867260627    13.32807756368955    26.562809238493355
S    -1.5920625867260627    13.32807756368955    23.437194361151295
Mo    -3.1841251734521787    14.247255326702595    25.000001799822392
S    -3.1841251734521983    16.085610852728763    26.562809238493355
Mo    7.9603129336308145    0.45958888150652355    25.000001799822392
S    7.960312933630795    2.2979444075326927    26.562809238493355
S    7.960312933630795    2.2979444075326927    23.437194361151295
Mo    6.368250346904679    3.2171221705457382    25.000001799822392
S    6.368250346904659    5.0554776965719075    26.562809238493355
S    6.368250346904659    5.0554776965719075    23.437194361151295
Mo    4.776187760178543    5.974655459584953    25.000001799822392
S    4.776187760178524    7.813010985611122    26.562809238493355
S    4.776187760178524    7.813010985611122    23.437194361151295
Mo    3.184125173452408    8.732188748624166    25.000001799822392
S    3.1841251734523883    10.570544274650336    26.562809238493355
S    3.1841251734523883    10.570544274650336    23.437194361151295
Mo    1.5920625867262723    11.48972203766338    25.000001799822392
S    1.5920625867262528    13.32807756368955    26.562809238493355
S    1.5920625867262528    13.32807756368955    23.437194361151295
Mo    1.3677947663381929e-13    14.247255326702595    25.000001799822392
S    1.1723955140041653e-13    16.085610852728763    26.562809238493355
S    1.1723955140041653e-13    16.085610852728763    23.437194361151295
Mo    11.144438107083129    0.45958888150652344    25.000001799822392
S    11.144438107083111    2.2979444075326922    26.562809238493355
S    11.144438107083111    2.2979444075326922    23.437194361151295
Mo    9.552375520356994    3.217122170545738    25.000001799822392
S    9.552375520356975    5.055477696571907    26.562809238493355
S    9.552375520356975    5.055477696571907    23.437194361151295
Mo    7.960312933630859    5.974655459584953    25.000001799822392
S    7.960312933630839    7.813010985611122    26.562809238493355
S    7.960312933630839    7.813010985611122    23.437194361151295
Mo    6.368250346904723    8.732188748624166    25.000001799822392
S    6.368250346904704    10.570544274650336    26.562809238493355
S    6.368250346904704    10.570544274650336    23.437194361151295
Mo    4.776187760178588    11.48972203766338    25.000001799822392
S    4.776187760178568    13.32807756368955    26.562809238493355
S    4.776187760178568    13.32807756368955    23.437194361151295
Mo    3.1841251734524523    14.247255326702595    25.000001799822392
S    3.1841251734524327    16.085610852728763    26.562809238493355
S    3.1841251734524327    16.085610852728763    23.437194361151295
Mo    14.328563280535445    0.45958888150652333    25.000001799822392
S    14.328563280535427    2.2979444075326922    26.562809238493355
S    14.328563280535427    2.2979444075326922    23.437194361151295
Mo    12.736500693809308    3.217122170545738    25.000001799822392
S    12.73650069380929    5.055477696571907    26.562809238493355
S    12.73650069380929    5.055477696571907    23.437194361151295
Mo    11.144438107083175    5.974655459584953    25.000001799822392
S    11.144438107083154    7.813010985611122    26.562809238493355
S    11.144438107083154    7.813010985611122    23.437194361151295
Mo    9.552375520357039    8.732188748624166    25.000001799822392
S    9.55237552035702    10.570544274650336    26.562809238493355
S    9.55237552035702    10.570544274650336    23.437194361151295
Mo    7.960312933630903    11.48972203766338    25.000001799822392
S    7.960312933630884    13.32807756368955    26.562809238493355
S    7.960312933630884    13.32807756368955    23.437194361151295
Mo    6.368250346904768    14.247255326702595    25.000001799822392
S    6.368250346904748    16.085610852728763    26.562809238493355
S    6.368250346904748    16.085610852728763    23.437194361151295
Mo    17.51268845398776    0.4595888815065233    25.000001799822392
S    17.512688453987742    2.2979444075326922    26.562809238493355
S    17.512688453987742    2.2979444075326922    23.437194361151295
Mo    15.920625867261624    3.217122170545738    25.000001799822392
S    15.920625867261606    5.055477696571907    26.562809238493355
S    15.920625867261606    5.055477696571907    23.437194361151295
Mo    14.32856328053549    5.974655459584952    25.000001799822392
S    14.32856328053547    7.81301098561112    26.562809238493355
S    14.32856328053547    7.81301098561112    23.437194361151295
Mo    12.736500693809354    8.732188748624166    25.000001799822392
S    12.736500693809337    10.570544274650336    26.562809238493355
S    12.736500693809337    10.570544274650336    23.437194361151295
Mo    11.144438107083218    11.48972203766338    25.000001799822392
S    11.1444381070832    13.32807756368955    26.562809238493355
S    11.1444381070832    13.32807756368955    23.437194361151295
Mo    9.552375520357083    14.247255326702595    25.000001799822392
S    9.552375520357064    16.085610852728763    26.562809238493355
S    9.552375520357064    16.085610852728763    23.437194361151295

CELL_PARAMETERS angstrom
19.104751040713893    -5.418509716142688e-16    0.0
-9.552375520356813    16.545199734235286    0.0
0.0    0.0    50.000003599644806

K_POINTS gamma